
===== New CPLEX run =====
Instance: /home/yorig/tuner/mpils-tests/instances/miplib/easy/lotsize.mps
Config: /scratch/yorig/mpils-results-grid-seconds-5-watchdog/easy/24proc/seed-5/4_lotsize_seed-5_20260504_011421/expansion/config_param_CPXPARAM_MIP_Limits_AggForCut_1_iter_3.prm
========================

Selected objective sense:  MINIMIZE
Selected objective  name:  R1921
Selected RHS        name:  B
Selected bound      name:  BOUND
Wall watchdog: enabled factor=1 grace=1 limit=6 seconds
Version identifier: 22.1.2.0 | 2024-11-26 | 0edbb82fd
CPXPARAM_Threads                                 8
CPXPARAM_Parallel                                1
CPXPARAM_MIP_Cuts_Cliques                        -1
CPXPARAM_MIP_Cuts_Covers                         -1
CPXPARAM_MIP_Cuts_Implied                        1
CPXPARAM_MIP_Limits_GomoryCand                   25
CPXPARAM_MIP_Cuts_Gomory                         1
CPXPARAM_MIP_Cuts_PathCut                        2
CPXPARAM_MIP_Cuts_Disjunctive                    -1
CPXPARAM_MIP_Limits_AggForCut                    1
CPXPARAM_Emphasis_MIP                            1
CPXPARAM_Preprocessing_Symmetry                  2
CPXPARAM_TimeLimit                               5
Tried aggregator 1 time.
MIP Presolve eliminated 595 rows and 0 columns.
MIP Presolve added 1190 rows and 0 columns.
MIP Presolve modified 10 coefficients.
Reduced MIP has 2515 rows, 2985 columns, and 7755 nonzeros.
Reduced MIP has 1195 binaries, 0 generals, 0 SOSs, and 0 indicators.
Presolve time = 0.00 sec. (4.53 ticks)
Probing fixed 0 vars, tightened 5487 bounds.
Probing time = 0.01 sec. (18.38 ticks)
Tried aggregator 2 times.
MIP Presolve modified 1206 coefficients.
Aggregator did 10 substitutions.
Reduced MIP has 2505 rows, 2975 columns, and 7735 nonzeros.
Reduced MIP has 1195 binaries, 0 generals, 0 SOSs, and 0 indicators.
Presolve time = 0.00 sec. (5.29 ticks)
Probing fixed 0 vars, tightened 2401 bounds.
Probing time = 0.00 sec. (6.41 ticks)
Clique table members: 190.
MIP emphasis: integer feasibility.
MIP search method: dynamic search.
Parallel mode: deterministic, using up to 8 threads.
Root relaxation solution time = 0.01 sec. (9.71 ticks)

        Nodes                                         Cuts/
   Node  Left     Objective  IInf  Best Integer    Best Bound    ItCnt     Gap

      0     0   348385.3466   472                 348385.3466      882         
      0     0   574455.4709   463                   Cuts: 726     1899         
      0     0   748334.2402   759                   Cuts: 726     2690         
      0     0   797663.5162   801                   Cuts: 482     3195         
*     0+    0                       1.01740e+07   797663.5162            92.16%
*     0+    0                      7973370.0000   797663.5162            90.00%
Detecting symmetries...
      0     2   797663.5162   801  7973370.0000   797907.2063     3195   89.99%
Elapsed time = 0.36 sec. (574.91 ticks, tree = 0.02 MB, solutions = 2)
    396   319   863238.4017   817  7973370.0000   798380.7997     9846   89.99%
    995   818  1020671.7579   544  7973370.0000   798380.7997    15562   89.99%
   1727  1515  1025431.4486   582  7973370.0000   798380.7997    23570   89.99%

Performing restart 1

Repeating presolve.
Tried aggregator 1 time.
MIP Presolve modified 1168 coefficients.
Reduced MIP has 2505 rows, 2975 columns, and 7735 nonzeros.
Reduced MIP has 1195 binaries, 0 generals, 0 SOSs, and 0 indicators.
Presolve time = 0.00 sec. (3.80 ticks)
Tried aggregator 1 time.
MIP Presolve modified 1022 coefficients.
Reduced MIP has 2505 rows, 2975 columns, and 7735 nonzeros.
Reduced MIP has 1195 binaries, 0 generals, 0 SOSs, and 0 indicators.
Presolve time = 0.00 sec. (3.76 ticks)
Represolve time = 0.02 sec. (17.29 ticks)
   1740     0   863764.4640   917  7973370.0000     Cuts: 510    29279   89.17%
   1740     0   885542.0453   940  7973370.0000     Cuts: 335    29672   88.89%
   1740     0   897079.6451   953  7973370.0000     Cuts: 257    29926   88.75%
   1740     2   897079.6451   953  7973370.0000   904461.7577    29926   88.66%
   1776     4   898076.5498   941  7973370.0000   904461.7577    29949   88.66%
   1863    96   964302.5829   831  7973370.0000   904461.7577    39806   88.66%
   2049   277  1070115.3123   643  7973370.0000   913994.8957    44701   88.54%
   2296   351   960357.8587   888  7973370.0000   913994.8957    46812   88.54%
   2596   753  1060858.7985   712  7973370.0000   913994.8957    54144   88.54%
   4618  2525  1529130.8143   151  7973370.0000   913994.8957    73077   88.54%
Elapsed time = 3.46 sec. (4788.83 ticks, tree = 26.51 MB, solutions = 2)
*  4623+ 2364                      2075274.0000   913994.8957            55.96%
*  4719+ 2655                      2015301.0000   913994.8957            54.65%
*  4774+ 2818                      1980652.0000   913994.8957            53.85%
*  4783  2889      integral     0  1979557.0000   913994.8957    76746   53.83%
*  6602+ 4428                      1943540.0000   913994.8957            52.97%
*  6650+ 4589                      1928618.0000   913994.8957            52.61%
*  7075+ 4891                      1868119.0000   913994.8957            51.07%
*  7121+ 4858                      1839877.0000   913994.8957            50.32%
   7206  4969  1005926.8898   752  1839877.0000   913994.8957    99837   50.32%
*  7443+ 4959                      1728966.0000   913994.8957            47.14%
*  7469+ 4959                      1670974.0000   913994.8957            45.30%
*  7476+ 4959                      1669346.0000   913994.8957            45.25%
*  7501+ 4959                      1663920.0000   913994.8957            45.07%
*  7510+ 4959                      1662648.0000   913994.8957            45.03%
*  7527+ 4959                      1662360.0000   913994.8957            45.02%
*  8298+ 4962                      1632272.0000   913994.8957            44.00%
*  8444+ 5046                      1631092.0000   913994.8957            43.96%
*  8714+ 5163                      1620378.0000   913994.8957            43.59%
*  8719+ 5163                      1618333.0000   913994.8957            43.52%
   8886  5331  1105525.4845   528  1618333.0000   913994.8957   125605   43.52%
*  9164+ 5548                      1616360.0000   913994.8957            43.45%
*  9170+ 5548                      1615474.0000   913994.8957            43.42%
*  9170+ 5514                      1615249.0000   913994.8957            43.41%
*  9173+ 5367                      1612858.0000   913994.8957            43.33%
*  9182+ 5367                      1610436.0000   913994.8957            43.25%

Implied bound cuts applied:  19
Flow cuts applied:  409
Mixed integer rounding cuts applied:  661
Flow path cuts applied:  395
Multi commodity flow cuts applied:  113
Lift and project cuts applied:  12
Gomory fractional cuts applied:  4

Root node processing (before b&c):
  Real time             =    0.36 sec. (572.76 ticks)
Parallel b&c, 8 threads:
  Real time             =    4.65 sec. (6414.47 ticks)
  Sync time (average)   =    0.41 sec.
  Wait time (average)   =    0.00 sec.
                          ------------
Total (root+branch&cut) =    5.00 sec. (6987.23 ticks)
Gap: 43.25%
Upper bound: 1.61044e+06
Lower bound: 913995
Termination status: Normal
End of CPLEX run. Time: 5.00617 seconds

===== New CPLEX run =====
Instance: /home/yorig/tuner/mpils-tests/instances/miplib/easy/lotsize.mps
Config: /scratch/yorig/mpils-results-grid-seconds-5-watchdog/easy/24proc/seed-5/4_lotsize_seed-5_20260504_011421/expansion/config_param_CPXPARAM_MIP_Limits_AggForCut_2_iter_3.prm
========================

Selected objective sense:  MINIMIZE
Selected objective  name:  R1921
Selected RHS        name:  B
Selected bound      name:  BOUND
Wall watchdog: enabled factor=1 grace=1 limit=6 seconds
Version identifier: 22.1.2.0 | 2024-11-26 | 0edbb82fd
CPXPARAM_Threads                                 8
CPXPARAM_Parallel                                1
CPXPARAM_MIP_Cuts_Cliques                        -1
CPXPARAM_MIP_Cuts_Covers                         -1
CPXPARAM_MIP_Cuts_Implied                        1
CPXPARAM_MIP_Limits_GomoryCand                   25
CPXPARAM_MIP_Cuts_Gomory                         1
CPXPARAM_MIP_Cuts_PathCut                        2
CPXPARAM_MIP_Cuts_Disjunctive                    -1
CPXPARAM_MIP_Limits_AggForCut                    2
CPXPARAM_Emphasis_MIP                            1
CPXPARAM_Preprocessing_Symmetry                  2
CPXPARAM_TimeLimit                               5
Tried aggregator 1 time.
MIP Presolve eliminated 595 rows and 0 columns.
MIP Presolve added 1190 rows and 0 columns.
MIP Presolve modified 10 coefficients.
Reduced MIP has 2515 rows, 2985 columns, and 7755 nonzeros.
Reduced MIP has 1195 binaries, 0 generals, 0 SOSs, and 0 indicators.
Presolve time = 0.00 sec. (4.53 ticks)
Probing fixed 0 vars, tightened 5487 bounds.
Probing time = 0.01 sec. (18.38 ticks)
Tried aggregator 2 times.
MIP Presolve modified 1206 coefficients.
Aggregator did 10 substitutions.
Reduced MIP has 2505 rows, 2975 columns, and 7735 nonzeros.
Reduced MIP has 1195 binaries, 0 generals, 0 SOSs, and 0 indicators.
Presolve time = 0.00 sec. (5.29 ticks)
Probing fixed 0 vars, tightened 2401 bounds.
Probing time = 0.00 sec. (6.41 ticks)
Clique table members: 190.
MIP emphasis: integer feasibility.
MIP search method: dynamic search.
Parallel mode: deterministic, using up to 8 threads.
Root relaxation solution time = 0.01 sec. (9.71 ticks)

        Nodes                                         Cuts/
   Node  Left     Objective  IInf  Best Integer    Best Bound    ItCnt     Gap

      0     0   348385.3466   472                 348385.3466      882         
      0     0   572993.6826   462                   Cuts: 726     1894         
      0     0   795840.8300   712                   Cuts: 726     2752         
*     0+    0                       1.01740e+07   795840.8300            92.18%
*     0+    0                      7973370.0000   795840.8300            90.02%
      0     0   907974.2519   758  7973370.0000     Cuts: 726     3446   88.61%
Detecting symmetries...
      0     2   907974.2519   758  7973370.0000   911411.6698     3446   88.57%
Elapsed time = 0.40 sec. (608.19 ticks, tree = 0.02 MB, solutions = 2)
    197   166   929928.3986   775  7973370.0000   911411.6698     9402   88.57%
    590   533   987574.5513   587  7973370.0000   911411.6698    15993   88.57%
    953   808  1050419.8836   598  7973370.0000   911411.6698    23855   88.57%
   1561  1344  1285166.4695   431  7973370.0000   911411.6698    32181   88.57%

Performing restart 1

Repeating presolve.
Tried aggregator 1 time.
MIP Presolve modified 1160 coefficients.
Reduced MIP has 2505 rows, 2975 columns, and 7735 nonzeros.
Reduced MIP has 1195 binaries, 0 generals, 0 SOSs, and 0 indicators.
Presolve time = 0.00 sec. (3.78 ticks)
Tried aggregator 1 time.
MIP Presolve modified 1029 coefficients.
Reduced MIP has 2505 rows, 2975 columns, and 7735 nonzeros.
Reduced MIP has 1195 binaries, 0 generals, 0 SOSs, and 0 indicators.
Presolve time = 0.00 sec. (3.75 ticks)
Represolve time = 0.01 sec. (17.52 ticks)
*  1755+    0                      6644005.0000   921926.4233            86.12%
   1755     0   986259.2064   829  6644005.0000     Cuts: 726    41488   85.16%
   1755     0  1024194.2529   877  6644005.0000     Cuts: 524    42109   84.58%
   1755     0  1058236.0087   820  6644005.0000     Cuts: 507    42647   84.07%
   1755     2  1058236.0087   820  6644005.0000  1058236.0087    42647   84.07%
   1775    22  1113748.8351   760  6644005.0000  1058554.1361    43049   84.07%
   1800    42  1139373.3896   833  6644005.0000  1059124.0907    45306   84.06%
   1885    94  1169419.1868   681  6644005.0000  1082159.4100    55297   83.71%
   2129   257  1207702.6918   547  6644005.0000  1084729.6018    60524   83.67%
*  3961+ 2020                      1908135.0000  1084729.6018            43.15%
   3988  2063  1760063.0116    12  1908135.0000  1084729.6018    98160   43.15%
Elapsed time = 3.63 sec. (5118.75 ticks, tree = 3.58 MB, solutions = 4)
*  4039+ 2067                      1863393.0000  1084729.6018            41.79%
*  4100+ 2120                      1792177.0000  1084729.6018            39.47%
*  4115  2203      integral     0  1746605.0000  1084729.6018   100811   37.89%
   5473  3435  1279458.8923   530  1746605.0000  1084729.6018   133117   37.89%
*  6088+ 3835                      1731652.0000  1084729.6018            37.36%
*  6307+ 3972                      1715172.0000  1084729.6018            36.76%
*  6309+ 3972                      1702142.0000  1084729.6018            36.27%
*  6418+ 4052                      1701933.0000  1084729.6018            36.26%
*  6739+ 4200                      1698505.0000  1084729.6018            36.14%
*  6745+ 4200                      1695605.0000  1084729.6018            36.03%
   6848  4247  1692776.3431   123  1695605.0000  1084729.6018   159821   36.03%

Implied bound cuts applied:  17
Flow cuts applied:  534
Mixed integer rounding cuts applied:  934
Flow path cuts applied:  294
Multi commodity flow cuts applied:  60
Lift and project cuts applied:  13
Gomory fractional cuts applied:  3

Root node processing (before b&c):
  Real time             =    0.40 sec. (605.87 ticks)
Parallel b&c, 8 threads:
  Real time             =    4.60 sec. (6524.72 ticks)
  Sync time (average)   =    0.32 sec.
  Wait time (average)   =    0.00 sec.
                          ------------
Total (root+branch&cut) =    5.00 sec. (7130.59 ticks)
Gap: 36.03%
Upper bound: 1.6956e+06
Lower bound: 1.08473e+06
Termination status: Normal
End of CPLEX run. Time: 5.00593 seconds
